4854
36
32
95
67
37
91
56
38
33
78
16
57
10
18
5
22
74
88
88
95
28
56
21
68
68
9
79
65
85
27
29
7
82
80
74
95
69
24
49
78
91
1
1
29
31
60
47
58
2
23
81
90
46
57
40
18
78
17
66
69
41
66
25
88
38
32
24
56
99
93
42
92
72
52
89
1
85
36
22
50
2
55
59
44
98
38
63
22
6
38
39
82
1
97
12
100
44
51
15
21